100
32
2
25
27
12
8
6
19
3
29
24
11
29
4
28
32
6
9
7
7
16
14
27
14
5
29
25
28
25
15
10
11
20
3
16
12
27
27
25
13
13
9
1
27
1
11
18
32
29
6
28
27
10
18
3
3
7
29
19
28
26
2
24
26
4
18
29
21
19
18
15
24
22
17
13
29
13
25
1
28
24
17
21
20
13
22
1
17
20
32
22
10
11
31
3
7
5
9
28
27
5